% seed = 0

mint = 25;
% maxt = 147;

nActs = 62;
dur = [0,2,3,2,2,2,3,3,2,2,1,2,6,2,3,5,3,4,4,1,4,3,2,2,3,1,2,2,1,3,4,3,3,1,3,2,1,4,1,1,3,2,2,1,3,1,1,3,2,4,3,3,2,3,4,1,4,1,2,2,2,0];

nSkills = 15;
sreq = [| 0,0,0,0,0,0,0,0,0,0,0,0,0,0,0,
	| 0,0,1,0,0,0,1,0,1,0,0,0,0,0,0,
	| 0,0,0,1,0,2,0,0,0,0,0,1,0,1,0,
	| 0,0,0,1,0,2,0,0,0,0,0,1,0,0,0,
	| 0,0,0,0,0,1,0,1,1,0,0,0,0,0,0,
	| 0,0,0,0,0,1,1,1,0,0,0,1,0,0,0,
	| 0,0,0,0,0,0,0,0,1,0,0,0,0,0,0,
	| 0,0,0,0,0,0,0,0,0,0,1,0,1,1,0,
	| 0,0,1,0,0,1,0,0,0,0,2,0,0,1,0,
	| 0,0,0,0,3,0,0,0,1,0,0,0,0,0,0,
	| 0,0,0,0,1,0,0,0,0,0,0,0,0,0,0,
	| 0,0,0,0,0,1,0,0,0,0,0,1,0,0,0,
	| 0,0,0,0,0,1,0,0,0,0,0,0,0,0,0,
	| 0,0,0,0,0,1,0,0,2,0,0,2,0,0,0,
	| 0,0,0,0,0,1,0,0,1,0,0,0,0,0,0,
	| 0,0,0,0,1,0,0,0,1,0,0,0,0,2,0,
	| 0,0,0,0,0,1,0,0,0,0,0,0,0,0,0,
	| 0,0,1,0,0,0,0,0,0,0,0,0,0,1,0,
	| 0,0,1,0,0,0,0,0,0,0,0,1,0,0,0,
	| 0,0,1,0,0,1,0,0,1,0,0,1,0,0,0,
	| 0,0,0,0,0,1,0,0,0,0,0,0,0,0,0,
	| 0,0,0,0,0,1,0,0,1,1,0,1,0,1,0,
	| 0,0,0,1,0,0,1,0,0,0,0,0,0,0,0,
	| 0,0,0,0,0,0,0,1,1,0,0,1,0,1,0,
	| 0,0,0,0,1,0,0,0,0,0,0,0,0,1,0,
	| 0,0,0,0,0,1,0,0,0,0,0,1,0,1,0,
	| 0,0,1,0,0,1,0,0,0,0,0,0,0,1,0,
	| 0,0,0,0,0,1,0,0,0,1,1,0,0,0,0,
	| 0,1,0,0,0,1,0,0,0,0,0,0,0,0,0,
	| 0,0,1,2,0,0,0,1,0,0,0,0,0,1,0,
	| 0,0,1,0,0,0,0,0,1,0,0,0,0,0,0,
	| 0,0,0,0,0,0,0,1,0,0,1,1,0,0,1,
	| 0,0,0,1,0,0,0,1,1,0,0,1,0,1,0,
	| 0,0,0,0,0,0,0,0,1,0,0,0,0,1,0,
	| 0,0,1,0,0,0,0,0,1,0,0,0,0,0,0,
	| 0,0,0,0,0,0,0,0,1,0,0,0,0,0,0,
	| 1,0,0,0,0,2,0,0,0,0,0,0,0,0,0,
	| 0,0,0,0,1,0,1,0,0,0,0,1,0,0,0,
	| 0,0,0,0,0,0,0,0,0,0,0,2,0,0,0,
	| 0,0,0,0,0,1,0,2,0,1,0,1,0,0,0,
	| 0,0,1,0,0,0,0,0,0,1,0,0,0,0,0,
	| 0,0,0,0,0,0,0,0,0,0,0,1,0,0,0,
	| 0,0,1,0,1,0,1,0,0,0,1,1,0,0,0,
	| 0,0,0,0,0,1,0,1,0,0,0,0,0,0,0,
	| 0,0,0,1,0,0,0,0,1,0,1,1,0,1,0,
	| 0,0,0,0,0,1,0,0,1,0,1,0,0,1,0,
	| 0,0,0,1,0,0,0,0,0,1,0,0,0,1,0,
	| 0,0,0,0,1,1,0,0,0,0,0,0,0,0,0,
	| 1,0,0,0,0,0,0,1,0,0,0,0,0,0,0,
	| 0,0,0,0,1,0,0,0,0,1,0,0,0,0,0,
	| 0,0,1,0,0,1,0,0,0,0,0,0,0,0,0,
	| 0,0,0,0,0,1,0,0,0,1,0,0,0,0,0,
	| 0,0,0,0,0,1,0,0,0,1,0,0,0,1,0,
	| 0,0,0,0,0,1,0,0,0,0,0,0,0,0,0,
	| 0,0,0,0,0,0,0,0,0,3,0,0,0,1,0,
	| 0,0,0,0,0,0,0,0,1,0,0,2,0,1,0,
	| 0,0,0,0,0,1,0,1,1,0,0,2,0,0,0,
	| 0,0,1,0,0,0,0,0,0,0,0,0,0,0,0,
	| 0,0,0,0,0,1,0,0,0,0,0,0,0,0,0,
	| 0,0,1,0,0,0,0,1,0,0,0,1,0,0,0,
	| 0,0,0,1,0,1,1,0,0,0,0,0,0,1,0,
	| 0,0,0,0,0,0,0,0,0,0,0,0,0,0,0, |];

% SumOfsreq = 173;

nResources = 16;
mastery = [| false,false,false,true,true,true,false,false,false,false,false,false,false,false,false,
	| false,false,false,false,false,false,false,false,true,false,false,false,false,true,true,
	| false,false,false,true,true,true,false,false,false,false,true,true,false,false,false,
	| true,true,true,false,false,false,true,true,true,false,false,false,false,false,false,
	| false,false,false,false,false,false,true,true,true,false,false,false,false,false,false,
	| false,false,false,false,false,false,false,false,false,false,false,false,false,true,true,
	| false,false,false,false,false,true,false,false,true,false,false,false,false,false,false,
	| false,false,true,false,false,false,false,false,false,false,false,false,false,false,false,
	| false,false,false,false,false,false,false,false,false,true,true,true,false,false,false,
	| false,false,false,true,true,true,true,true,true,false,false,false,false,false,false,
	| false,false,false,false,false,true,false,false,false,false,false,false,false,false,true,
	| false,false,false,false,false,false,false,false,false,false,false,true,false,false,false,
	| false,false,false,false,false,false,false,false,false,true,true,true,true,true,true,
	| false,false,false,true,true,true,false,false,false,false,false,false,false,false,false,
	| false,false,false,false,false,false,true,true,true,true,true,true,false,false,false,
	| false,false,false,false,false,false,false,false,true,false,false,false,false,false,false, |];

nPrecs = 93;
pred = [1,1,1,2,2,3,3,3,4,5,6,6,6,7,7,7,8,8,8,9,9,9,10,10,10,11,11,11,12,12,12,13,13,13,14,14,14,15,16,16,16,17,18,19,19,20,21,22,23,23,24,24,25,26,27,28,29,30,30,31,32,33,34,35,35,36,37,38,39,40,41,42,43,44,44,45,46,47,48,49,50,51,51,52,53,54,55,56,57,58,59,60,61];
succ = [2,3,4,5,15,57,10,7,6,35,9,41,8,18,11,29,25,13,23,17,12,30,20,22,24,21,14,46,51,32,16,58,43,61,42,44,31,57,34,19,28,35,34,60,36,40,27,49,26,37,26,52,60,53,34,36,52,33,47,40,54,39,38,51,45,56,46,48,53,60,55,50,54,52,48,55,56,48,49,61,56,57,58,53,54,55,59,59,61,59,62,62,62];

nUnrels = 1346;
unpred = [2,2,2,2,2,2,2,2,2,2,2,2,2,2,2,2,2,2,2,2,2,2,2,2,2,2,2,2,2,2,2,2,2,2,2,2,2,2,2,2,2,2,2,2,2,2,2,2,2,3,3,3,3,3,3,3,3,3,3,3,3,3,3,3,3,3,3,3,3,3,3,3,3,3,3,3,4,4,4,4,4,4,4,4,4,4,4,4,4,4,4,4,4,4,4,5,5,5,5,5,5,5,5,5,5,5,5,5,5,5,5,5,5,5,5,5,5,5,5,5,5,5,5,5,5,5,5,5,5,5,5,5,5,5,5,5,5,5,5,5,5,5,5,6,6,6,6,6,6,6,6,6,6,6,6,6,6,6,6,6,6,7,7,7,7,7,7,7,7,7,7,7,7,7,7,7,7,7,7,7,7,7,7,7,7,7,7,7,7,7,7,8,8,8,8,8,8,8,8,8,8,8,8,8,8,8,8,8,8,8,8,8,8,8,8,8,8,8,8,8,8,8,8,8,8,8,8,8,8,9,9,9,9,9,9,9,9,9,9,9,9,9,9,9,9,9,9,9,9,9,9,9,9,9,10,10,10,10,10,10,10,10,10,10,10,10,10,10,10,10,10,10,10,10,10,10,10,10,10,10,10,10,10,10,10,10,10,10,10,10,10,10,11,11,11,11,11,11,11,11,11,11,11,11,11,11,11,11,11,11,11,11,11,11,11,11,11,11,11,11,11,12,12,12,12,12,12,12,12,12,12,12,12,12,12,12,12,12,12,12,12,12,12,12,12,12,12,12,12,12,12,12,13,13,13,13,13,13,13,13,13,13,13,13,13,13,13,13,13,13,13,13,13,13,13,13,13,13,13,13,13,13,13,13,13,13,13,13,13,13,13,13,13,13,14,14,14,14,14,14,14,14,14,14,14,14,14,14,14,14,14,14,14,14,14,14,14,14,14,14,14,14,14,14,14,14,15,15,15,15,15,15,15,15,15,15,15,15,15,15,15,15,15,15,15,15,15,15,15,15,15,15,15,15,15,15,15,15,15,15,15,15,15,15,15,15,15,15,15,15,16,16,16,16,16,16,16,16,16,16,16,16,16,16,16,16,16,16,16,16,16,16,16,16,16,16,16,16,16,16,16,16,16,16,17,17,17,17,17,17,17,17,17,17,17,17,17,17,17,17,17,17,17,17,17,17,17,17,17,17,17,17,17,17,17,17,17,17,17,17,18,18,18,18,18,18,18,18,18,18,18,18,18,18,18,18,18,18,18,18,18,18,18,18,18,18,18,18,18,18,18,18,18,18,18,18,18,18,19,19,19,19,19,19,19,19,19,19,19,19,19,19,19,19,19,19,19,19,19,19,19,19,19,19,19,19,19,19,19,19,19,19,19,19,19,19,20,20,20,20,20,20,20,20,20,20,20,20,20,20,20,20,20,20,20,20,20,20,20,20,20,20,20,20,20,20,20,20,20,20,20,20,20,20,20,21,21,21,21,21,21,21,21,21,21,21,21,21,21,21,21,21,21,21,21,21,21,21,21,21,21,21,21,21,21,21,21,21,21,22,22,22,22,22,22,22,22,22,22,22,22,22,22,22,22,22,22,22,22,22,22,22,22,22,22,22,22,22,22,22,22,22,22,22,22,22,23,23,23,23,23,23,23,23,23,23,23,23,23,23,23,23,23,23,23,23,23,23,23,23,23,23,23,23,23,23,24,24,24,24,24,24,24,24,24,24,24,24,24,24,24,24,24,24,24,24,24,24,24,24,24,24,24,24,24,24,24,25,25,25,25,25,25,25,25,25,25,25,25,25,25,25,25,25,25,25,25,25,25,25,25,25,25,25,25,25,25,25,25,25,25,25,26,26,26,26,26,26,26,26,26,26,26,26,26,26,26,26,26,26,26,26,26,26,26,26,26,26,26,26,26,26,26,27,27,27,27,27,27,27,27,27,27,27,27,27,27,27,27,27,27,27,27,27,27,27,27,27,27,27,27,27,28,28,28,28,28,28,28,28,28,28,28,28,28,28,28,28,28,28,28,28,28,28,28,28,28,28,28,28,28,28,29,29,29,29,29,29,29,29,29,29,29,29,29,29,29,29,29,29,29,29,29,29,29,29,29,29,29,30,30,30,30,30,30,30,30,30,30,30,30,30,30,30,30,30,30,30,30,30,31,31,31,31,31,31,31,31,31,31,31,31,31,31,31,31,31,31,31,31,31,31,31,31,31,31,31,31,32,32,32,32,32,32,32,32,32,32,32,32,32,32,32,32,32,32,32,32,32,32,32,32,32,32,33,33,33,33,33,33,33,33,33,33,33,33,33,33,33,33,33,33,33,33,33,33,33,34,34,34,34,34,34,34,34,34,34,34,34,34,34,34,34,34,34,34,34,34,34,34,35,35,35,35,35,35,35,35,35,35,35,35,35,35,35,35,35,35,35,36,36,36,36,36,36,36,36,36,36,36,36,36,36,36,36,36,36,36,36,36,36,36,37,37,37,37,37,37,37,37,37,37,37,37,37,37,37,37,37,37,37,37,37,38,38,38,38,38,38,38,38,38,38,38,38,38,38,38,38,38,38,38,38,39,39,39,39,39,39,39,39,39,39,39,39,39,39,39,39,39,39,40,40,40,40,40,40,40,40,40,40,40,40,40,40,40,40,40,40,40,40,41,41,41,41,41,41,41,41,41,41,41,41,41,41,41,41,41,41,42,42,42,42,42,42,42,42,42,42,42,42,42,42,42,42,43,43,43,43,43,43,43,43,43,43,43,43,43,43,43,44,44,44,44,44,44,44,44,44,45,45,45,45,45,45,45,45,45,45,45,45,45,45,46,46,46,46,46,46,46,46,46,46,46,46,46,47,47,47,47,47,47,47,47,47,47,47,48,48,48,48,48,48,48,48,48,48,48,49,49,49,49,49,49,49,49,49,49,49,50,50,50,50,50,50,50,50,50,51,51,51,51,51,51,52,52,52,52,52,53,53,53,53,53,54,54,54,54,54,55,55,55,55,55,56,56,56,56,57,57,57,58,58,59,59,60];
unsucc = [3,4,6,7,8,9,10,11,12,13,14,16,17,18,19,20,21,22,23,24,25,26,27,28,29,30,31,32,33,34,36,37,38,39,40,41,42,43,44,46,47,48,49,50,52,53,54,56,60,4,5,6,8,9,12,13,15,16,17,19,23,25,28,30,32,33,35,36,37,39,41,43,45,47,51,58,5,7,10,11,14,15,18,20,21,22,24,27,29,31,40,42,44,50,52,6,7,8,9,10,11,12,13,14,15,16,17,18,19,20,21,22,23,24,25,26,27,28,29,30,31,32,33,34,36,37,38,39,40,41,42,43,44,46,47,48,49,50,52,53,54,56,60,7,10,11,14,15,18,20,21,22,24,27,29,31,40,42,44,50,52,8,9,10,12,13,15,16,17,19,20,22,23,24,25,26,28,30,32,33,35,36,37,39,41,43,45,47,51,57,58,9,10,11,12,14,15,16,17,18,19,20,21,22,24,27,28,29,30,31,32,33,34,35,36,38,39,40,41,42,44,45,47,48,49,50,51,52,57,10,11,13,14,15,18,20,21,22,23,24,25,26,27,29,31,37,40,41,42,43,44,46,50,52,11,12,13,14,15,16,17,18,19,21,23,25,27,28,29,30,31,32,33,34,35,36,37,38,39,41,42,43,44,45,46,47,48,50,51,56,57,58,12,13,15,16,17,18,19,20,22,23,24,25,26,28,29,30,32,33,35,36,37,39,41,43,45,47,51,57,58,13,14,15,17,18,20,21,22,23,24,25,26,27,29,30,31,33,35,37,39,40,41,42,43,44,45,46,47,50,52,53,14,15,16,17,18,19,20,21,22,23,24,25,26,27,28,29,30,31,32,33,34,35,36,37,38,39,40,41,42,44,45,46,47,48,49,50,51,52,53,56,57,60,15,16,17,18,19,20,21,22,23,24,25,26,27,28,29,30,32,33,34,35,36,37,38,39,41,43,45,46,47,51,57,58,16,17,18,19,20,21,22,23,24,25,26,27,28,29,30,31,32,33,34,35,36,37,38,39,40,41,42,43,44,45,46,47,48,49,50,51,52,53,54,55,56,58,59,60,17,18,20,21,22,23,24,25,26,27,29,30,31,32,33,35,37,39,40,41,42,43,44,45,46,47,50,51,52,53,54,55,57,58,18,19,20,21,22,23,24,25,26,27,28,29,30,31,32,33,34,36,37,38,39,40,41,42,43,44,46,47,48,49,50,52,53,54,56,60,19,20,21,22,23,24,25,26,27,28,29,30,31,32,33,35,36,37,39,40,41,42,43,44,45,46,47,50,51,52,53,54,55,56,57,58,59,60,20,21,22,23,24,25,26,27,28,29,30,31,32,33,34,35,37,38,39,40,41,42,43,44,45,46,47,48,49,50,51,52,53,54,55,57,58,61,21,22,23,24,25,26,27,28,29,30,31,32,33,34,35,36,37,38,39,41,42,43,44,45,46,47,48,49,50,51,52,53,54,55,56,57,58,59,61,22,23,24,25,26,28,29,30,31,32,33,35,36,37,39,40,41,42,43,44,45,46,47,50,51,52,53,54,55,56,57,58,59,60,23,24,25,26,27,28,29,30,31,32,33,34,35,36,37,38,39,40,41,42,43,44,45,46,47,48,50,51,52,53,54,55,56,57,58,59,60,24,25,27,28,29,30,31,32,33,34,35,36,38,39,40,41,42,43,44,45,47,48,49,50,51,52,57,58,60,61,25,27,28,29,30,31,32,33,34,35,36,37,38,39,40,41,42,43,44,45,46,47,48,49,50,51,56,57,58,60,61,26,27,28,29,30,31,32,33,34,35,36,37,38,39,40,41,42,43,44,45,46,47,48,49,50,51,52,53,54,55,56,57,58,59,61,27,28,29,30,31,32,33,34,35,36,37,38,39,40,41,42,43,44,45,46,47,48,49,50,51,52,56,57,58,60,61,28,29,30,31,32,33,35,36,37,39,40,41,42,43,44,45,46,47,50,51,52,53,54,55,56,57,58,59,60,29,30,31,32,33,34,35,37,38,39,40,41,42,43,44,45,46,47,48,49,50,51,52,53,54,55,57,58,60,61,30,31,32,33,34,35,36,37,38,39,40,41,42,43,44,45,46,47,48,49,50,51,56,57,58,60,61,31,32,34,35,36,37,38,40,41,42,43,44,45,46,50,51,52,56,57,58,60,32,33,34,35,36,37,38,39,41,42,43,44,45,46,47,48,49,50,51,52,53,54,55,56,57,58,59,61,33,34,35,36,37,38,39,40,41,42,43,44,45,46,47,48,49,50,51,52,53,56,57,58,60,61,34,35,36,37,38,40,41,42,43,44,45,46,47,48,49,50,51,52,56,57,58,60,61,35,36,37,39,40,41,42,43,44,45,46,47,50,51,52,53,54,55,56,57,58,59,60,36,37,38,39,40,41,42,43,44,46,47,48,49,50,52,53,54,56,60,37,38,39,40,41,42,43,44,45,46,47,48,49,50,51,52,53,54,55,57,58,60,61,38,39,40,41,42,43,44,45,47,48,49,50,51,52,53,54,55,57,58,60,61,39,40,41,42,43,44,45,46,47,50,51,52,53,54,55,56,57,58,59,60,40,41,42,43,44,45,46,47,48,49,50,51,52,56,57,58,60,61,41,42,43,44,45,46,47,48,49,50,51,52,53,54,55,56,57,58,59,61,42,43,44,45,46,47,48,49,50,51,52,53,54,56,57,58,60,61,43,44,45,46,47,48,49,51,52,53,54,55,57,58,60,61,44,45,46,47,48,49,50,51,52,53,56,57,58,60,61,45,46,47,50,51,56,57,58,60,46,47,48,49,50,51,52,53,54,56,57,58,60,61,47,48,49,50,51,52,53,54,55,57,58,60,61,50,51,52,53,54,55,56,57,58,59,60,50,51,52,53,54,55,56,57,58,59,60,50,51,52,53,54,55,56,57,58,59,60,51,52,53,54,55,57,58,60,61,52,53,54,55,56,60,56,57,58,60,61,56,57,58,60,61,56,57,58,60,61,56,57,58,60,61,57,58,60,61,58,59,60,60,61,60,61,61];

USEFUL_RES = [{},
	{2,4,5,7,8,10,15,16},
	{1,2,3,6,7,9,10,11,12,13,14,15},
	{1,3,7,9,10,11,12,13,14,15},
	{1,2,3,4,5,7,10,11,14,15,16},
	{1,3,4,5,7,9,10,11,12,13,14,15},
	{2,4,5,7,10,15,16},
	{2,3,6,9,13,15},
	{1,2,3,4,6,7,8,9,10,11,13,14,15},
	{1,2,3,4,5,7,10,14,15,16},
	{1,3,10,14},
	{1,3,7,9,10,11,12,13,14,15},
	{1,3,7,10,11,14},
	{1,2,3,4,5,7,9,10,11,12,13,14,15,16},
	{1,2,3,4,5,7,10,11,14,15,16},
	{1,2,3,4,5,6,7,10,13,14,15,16},
	{1,3,7,10,11,14},
	{2,4,6,8,13},
	{3,4,8,9,12,13,15},
	{1,2,3,4,5,7,8,9,10,11,12,13,14,15,16},
	{1,3,7,10,11,14},
	{1,2,3,4,5,6,7,9,10,11,12,13,14,15,16},
	{1,3,4,5,10,14,15},
	{2,3,4,5,6,7,9,10,12,13,15,16},
	{1,2,3,6,10,13,14},
	{1,2,3,6,7,9,10,11,12,13,14,15},
	{1,2,3,4,6,7,8,10,11,13,14},
	{1,3,7,9,10,11,13,14,15},
	{1,3,4,7,10,11,14},
	{1,2,3,4,5,6,8,10,13,14,15},
	{2,4,5,7,8,10,15,16},
	{2,3,4,5,6,9,10,11,12,13,15},
	{1,2,3,4,5,6,7,9,10,12,13,14,15,16},
	{2,4,5,6,7,10,13,15,16},
	{2,4,5,7,8,10,15,16},
	{2,4,5,7,10,15,16},
	{1,3,4,7,10,11,14},
	{1,3,4,5,9,10,12,13,14,15},
	{3,9,12,13,15},
	{1,3,4,5,7,9,10,11,12,13,14,15},
	{4,8,9,13,15},
	{3,9,12,13,15},
	{1,3,4,5,8,9,10,12,13,14,15},
	{1,3,4,5,7,10,11,14,15},
	{1,2,3,4,5,6,7,9,10,12,13,14,15,16},
	{1,2,3,4,5,6,7,9,10,11,13,14,15,16},
	{1,2,3,6,9,10,13,14,15},
	{1,3,7,10,11,14},
	{4,5,10,15},
	{1,3,9,10,13,14,15},
	{1,3,4,7,8,10,11,14},
	{1,3,7,9,10,11,13,14,15},
	{1,2,3,6,7,9,10,11,13,14,15},
	{1,3,7,10,11,14},
	{2,6,9,13,15},
	{2,3,4,5,6,7,9,10,12,13,15,16},
	{1,2,3,4,5,7,9,10,11,12,13,14,15,16},
	{4,8},
	{1,3,7,10,11,14},
	{3,4,5,8,9,10,12,13,15},
	{1,2,3,4,5,6,7,10,11,13,14,15},
	{}];

POTENTIAL_ACT = [{3,4,5,6,9,10,11,12,13,14,15,16,17,20,21,22,23,25,26,27,28,29,30,33,37,38,40,43,44,45,46,47,48,50,51,52,53,54,57,59,61},
	{2,3,5,7,8,9,10,14,15,16,18,20,22,24,25,26,27,30,31,32,33,34,35,36,45,46,47,53,55,56,57,61},
	{3,4,5,6,8,9,10,11,12,13,14,15,16,17,19,20,21,22,23,24,25,26,27,28,29,30,32,33,37,38,39,40,42,43,44,45,46,47,48,50,51,52,53,54,56,57,59,60,61},
	{2,5,6,7,9,10,14,15,16,18,19,20,22,23,24,27,29,30,31,32,33,34,35,36,37,38,40,41,43,44,45,46,49,51,56,57,58,60,61},
	{2,5,6,7,10,14,15,16,20,22,23,24,30,31,32,33,34,35,36,38,40,43,44,45,46,49,56,57,60,61},
	{3,8,9,16,18,22,24,25,26,27,30,32,33,34,45,46,47,53,55,56,61},
	{2,3,4,5,6,7,9,10,12,13,14,15,16,17,20,21,22,24,26,27,28,29,31,33,34,35,36,37,40,44,45,46,48,51,52,53,54,56,57,59,61},
	{2,9,18,19,20,27,30,31,35,41,43,51,58,60},
	{3,4,6,8,9,12,14,19,20,22,24,26,28,32,33,38,39,40,41,42,43,45,46,47,50,52,53,55,56,57,60},
	{2,3,4,5,6,7,9,10,11,12,13,14,15,16,17,20,21,22,23,24,25,26,27,28,29,30,31,32,33,34,35,36,37,38,40,43,44,45,46,47,48,49,50,51,52,53,54,56,57,59,60,61},
	{3,4,5,6,9,12,13,14,15,17,20,21,22,26,27,28,29,32,37,40,44,46,48,51,52,53,54,57,59,61},
	{3,4,6,12,14,19,20,22,24,26,32,33,38,39,40,42,43,45,56,57,60},
	{3,4,6,8,9,12,14,16,18,19,20,22,24,25,26,27,28,30,32,33,34,38,39,40,41,42,43,45,46,47,50,52,53,55,56,57,60,61},
	{3,4,5,6,9,10,11,12,13,14,15,16,17,20,21,22,23,25,26,27,28,29,30,33,37,38,40,43,44,45,46,47,48,50,51,52,53,54,57,59,61},
	{2,3,4,5,6,7,8,9,10,12,14,15,16,19,20,22,23,24,26,28,30,31,32,33,34,35,36,38,39,40,41,42,43,44,45,46,47,49,50,52,53,55,56,57,60,61},
	{2,5,7,10,14,15,16,20,22,24,31,33,34,35,36,45,46,56,57}];
